p cnf 11 64
1 -3 -4 0
1 2 9 0
5 6 7 0
-6 7 -10 0
3 4 9 0
3 -6 10 0
-1 -3 -6 0
5 -7 -10 0
2 3 10 0
-1 -3 10 0
3 -6 8 0
-8 9 -11 0
1 -4 8 0
1 -4 7 0
1 3 -10 0
2 -5 6 0
-3 -4 -6 0
-1 7 11 0
-3 9 10 0
-4 5 8 0
-3 8 -10 0
3 4 -5 0
-7 10 11 0
3 4 7 0
-5 6 7 0
-2 -3 -7 0
-1 -2 3 0
-3 -4 -9 0
1 -5 10 0
-1 -3 -8 0
-1 4 10 0
-4 -9 11 0
5 9 -11 0
-1 -3 -10 0
-2 -8 -9 0
2 -4 -6 0
2 -3 7 0
8 9 -11 0
-5 7 -9 0
-4 10 -11 0
-1 2 10 0
2 -3 -9 0
7 9 10 0
1 -3 -5 0
4 -7 -10 0
5 9 -10 0
1 -7 -9 0
-4 10 11 0
7 9 11 0
7 -9 -11 0
-1 -7 10 0
5 10 11 0
-4 5 -8 0
1 10 11 0
1 -2 -3 0
7 -9 -10 0
1 -5 -8 0
-3 7 -10 0
2 -6 7 0
-2 3 -5 0
-1 -5 9 0
-3 -4 8 0
-1 6 -8 0
-4 -10 11 0
